c FILE: n200d20/random-n200-d20-8.col

p edge 200 3980
e 1 9
e 1 16
e 1 19
e 1 27
e 1 31
e 1 36
e 1 42
e 1 43
e 1 45
e 1 49
e 1 52
e 1 65
e 1 76
e 1 78
e 1 81
e 1 85
e 1 96
e 1 97
e 1 98
e 1 105
e 1 107
e 1 112
e 1 114
e 1 115
e 1 119
e 1 121
e 1 125
e 1 130
e 1 132
e 1 141
e 1 147
e 1 156
e 1 169
e 1 194
e 2 4
e 2 12
e 2 35
e 2 38
e 2 41
e 2 42
e 2 43
e 2 45
e 2 49
e 2 62
e 2 77
e 2 81
e 2 91
e 2 100
e 2 104
e 2 110
e 2 114
e 2 116
e 2 117
e 2 122
e 2 124
e 2 128
e 2 132
e 2 133
e 2 142
e 2 144
e 2 145
e 2 148
e 2 167
e 2 170
e 2 176
e 2 177
e 2 179
e 2 194
e 2 195
e 2 199
e 2 200
e 3 6
e 3 12
e 3 15
e 3 20
e 3 30
e 3 32
e 3 41
e 3 54
e 3 64
e 3 68
e 3 70
e 3 75
e 3 80
e 3 81
e 3 86
e 3 89
e 3 90
e 3 94
e 3 96
e 3 100
e 3 101
e 3 104
e 3 109
e 3 110
e 3 114
e 3 122
e 3 125
e 3 128
e 3 130
e 3 134
e 3 137
e 3 138
e 3 156
e 3 160
e 3 161
e 3 162
e 3 163
e 3 167
e 3 170
e 3 171
e 3 175
e 3 176
e 3 188
e 3 196
e 3 198
e 3 199
e 4 14
e 4 32
e 4 34
e 4 49
e 4 50
e 4 53
e 4 64
e 4 69
e 4 80
e 4 82
e 4 84
e 4 88
e 4 92
e 4 98
e 4 103
e 4 107
e 4 114
e 4 116
e 4 121
e 4 129
e 4 159
e 4 162
e 4 173
e 4 174
e 4 196
e 4 198
e 5 7
e 5 8
e 5 12
e 5 18
e 5 27
e 5 28
e 5 35
e 5 37
e 5 43
e 5 47
e 5 52
e 5 57
e 5 62
e 5 64
e 5 67
e 5 68
e 5 78
e 5 79
e 5 81
e 5 83
e 5 85
e 5 92
e 5 99
e 5 100
e 5 103
e 5 104
e 5 114
e 5 117
e 5 131
e 5 133
e 5 138
e 5 140
e 5 142
e 5 147
e 5 150
e 5 154
e 5 155
e 5 158
e 5 168
e 5 171
e 5 189
e 6 11
e 6 16
e 6 17
e 6 23
e 6 37
e 6 38
e 6 39
e 6 52
e 6 59
e 6 63
e 6 64
e 6 70
e 6 72
e 6 74
e 6 79
e 6 91
e 6 101
e 6 107
e 6 108
e 6 113
e 6 115
e 6 119
e 6 124
e 6 125
e 6 126
e 6 133
e 6 137
e 6 138
e 6 143
e 6 145
e 6 149
e 6 161
e 6 163
e 6 166
e 6 169
e 6 172
e 6 174
e 6 176
e 6 179
e 6 184
e 6 194
e 6 197
e 7 9
e 7 14
e 7 15
e 7 22
e 7 23
e 7 32
e 7 33
e 7 43
e 7 44
e 7 47
e 7 50
e 7 55
e 7 56
e 7 62
e 7 65
e 7 66
e 7 67
e 7 68
e 7 70
e 7 72
e 7 84
e 7 87
e 7 94
e 7 100
e 7 102
e 7 104
e 7 116
e 7 117
e 7 118
e 7 120
e 7 122
e 7 124
e 7 127
e 7 128
e 7 138
e 7 139
e 7 140
e 7 148
e 7 151
e 7 155
e 7 164
e 7 165
e 7 166
e 7 173
e 7 176
e 7 186
e 7 188
e 7 195
e 8 18
e 8 26
e 8 31
e 8 43
e 8 44
e 8 53
e 8 54
e 8 67
e 8 69
e 8 76
e 8 82
e 8 83
e 8 85
e 8 86
e 8 91
e 8 99
e 8 109
e 8 111
e 8 116
e 8 126
e 8 141
e 8 149
e 8 152
e 8 153
e 8 155
e 8 157
e 8 159
e 8 160
e 8 163
e 8 164
e 8 167
e 8 168
e 8 169
e 8 170
e 8 171
e 8 175
e 8 185
e 8 189
e 8 190
e 8 194
e 8 199
e 8 200
e 9 10
e 9 13
e 9 14
e 9 28
e 9 36
e 9 40
e 9 43
e 9 44
e 9 45
e 9 76
e 9 77
e 9 79
e 9 83
e 9 89
e 9 92
e 9 94
e 9 96
e 9 98
e 9 102
e 9 103
e 9 111
e 9 114
e 9 116
e 9 118
e 9 122
e 9 126
e 9 128
e 9 135
e 9 154
e 9 156
e 9 159
e 9 165
e 9 170
e 9 175
e 9 180
e 9 191
e 9 193
e 9 196
e 9 200
e 10 13
e 10 19
e 10 21
e 10 24
e 10 28
e 10 39
e 10 40
e 10 47
e 10 48
e 10 50
e 10 53
e 10 55
e 10 57
e 10 59
e 10 63
e 10 65
e 10 68
e 10 73
e 10 74
e 10 88
e 10 89
e 10 92
e 10 93
e 10 94
e 10 101
e 10 108
e 10 118
e 10 138
e 10 139
e 10 149
e 10 153
e 10 154
e 10 165
e 10 170
e 10 174
e 10 176
e 10 192
e 10 199
e 11 13
e 11 20
e 11 21
e 11 25
e 11 32
e 11 35
e 11 38
e 11 39
e 11 59
e 11 75
e 11 78
e 11 89
e 11 108
e 11 113
e 11 128
e 11 131
e 11 143
e 11 144
e 11 145
e 11 151
e 11 155
e 11 157
e 11 158
e 11 162
e 11 165
e 11 166
e 11 183
e 11 185
e 12 20
e 12 25
e 12 27
e 12 31
e 12 34
e 12 46
e 12 59
e 12 64
e 12 72
e 12 79
e 12 81
e 12 90
e 12 95
e 12 100
e 12 103
e 12 106
e 12 118
e 12 120
e 12 122
e 12 124
e 12 125
e 12 126
e 12 133
e 12 135
e 12 138
e 12 139
e 12 144
e 12 146
e 12 150
e 12 155
e 12 162
e 12 163
e 12 176
e 12 177
e 12 178
e 12 182
e 12 186
e 12 199
e 13 20
e 13 24
e 13 25
e 13 31
e 13 42
e 13 43
e 13 47
e 13 61
e 13 62
e 13 63
e 13 70
e 13 76
e 13 85
e 13 86
e 13 88
e 13 90
e 13 96
e 13 114
e 13 117
e 13 121
e 13 123
e 13 129
e 13 133
e 13 134
e 13 135
e 13 140
e 13 141
e 13 142
e 13 144
e 13 148
e 13 150
e 13 155
e 13 159
e 13 162
e 13 166
e 13 172
e 13 179
e 13 184
e 13 196
e 14 19
e 14 22
e 14 30
e 14 32
e 14 34
e 14 35
e 14 36
e 14 37
e 14 38
e 14 42
e 14 47
e 14 61
e 14 68
e 14 69
e 14 82
e 14 83
e 14 89
e 14 90
e 14 92
e 14 97
e 14 107
e 14 113
e 14 118
e 14 129
e 14 132
e 14 137
e 14 141
e 14 143
e 14 152
e 14 167
e 14 169
e 14 172
e 14 176
e 14 178
e 14 180
e 14 191
e 15 24
e 15 34
e 15 35
e 15 40
e 15 42
e 15 54
e 15 64
e 15 77
e 15 81
e 15 82
e 15 86
e 15 93
e 15 97
e 15 98
e 15 100
e 15 108
e 15 109
e 15 110
e 15 119
e 15 127
e 15 133
e 15 134
e 15 136
e 15 147
e 15 150
e 15 163
e 15 165
e 15 166
e 15 170
e 15 174
e 15 176
e 15 185
e 15 192
e 15 194
e 16 21
e 16 22
e 16 24
e 16 25
e 16 27
e 16 32
e 16 33
e 16 39
e 16 40
e 16 41
e 16 43
e 16 44
e 16 45
e 16 46
e 16 48
e 16 52
e 16 61
e 16 66
e 16 69
e 16 73
e 16 75
e 16 83
e 16 86
e 16 91
e 16 108
e 16 110
e 16 116
e 16 124
e 16 129
e 16 132
e 16 134
e 16 136
e 16 138
e 16 140
e 16 146
e 16 147
e 16 148
e 16 150
e 16 165
e 16 177
e 16 179
e 16 184
e 16 185
e 16 189
e 16 192
e 16 196
e 16 197
e 17 27
e 17 29
e 17 35
e 17 50
e 17 54
e 17 59
e 17 84
e 17 93
e 17 117
e 17 119
e 17 128
e 17 134
e 17 137
e 17 138
e 17 142
e 17 150
e 17 151
e 17 152
e 17 155
e 17 157
e 17 172
e 17 177
e 17 197
e 18 22
e 18 23
e 18 28
e 18 44
e 18 49
e 18 60
e 18 65
e 18 68
e 18 71
e 18 72
e 18 73
e 18 77
e 18 82
e 18 91
e 18 95
e 18 103
e 18 108
e 18 114
e 18 117
e 18 120
e 18 127
e 18 145
e 18 148
e 18 150
e 18 168
e 18 169
e 18 179
e 18 181
e 18 183
e 18 184
e 18 195
e 18 197
e 18 199
e 18 200
e 19 28
e 19 29
e 19 33
e 19 39
e 19 40
e 19 43
e 19 51
e 19 52
e 19 55
e 19 58
e 19 72
e 19 93
e 19 95
e 19 100
e 19 105
e 19 107
e 19 111
e 19 113
e 19 121
e 19 125
e 19 141
e 19 143
e 19 160
e 19 172
e 19 173
e 19 178
e 19 180
e 19 184
e 19 185
e 19 187
e 19 189
e 19 193
e 19 194
e 19 199
e 20 21
e 20 24
e 20 27
e 20 41
e 20 45
e 20 56
e 20 57
e 20 59
e 20 61
e 20 76
e 20 77
e 20 84
e 20 86
e 20 90
e 20 97
e 20 99
e 20 105
e 20 117
e 20 121
e 20 129
e 20 138
e 20 144
e 20 155
e 20 156
e 20 165
e 20 170
e 20 175
e 20 177
e 20 178
e 20 182
e 20 190
e 20 191
e 20 199
e 21 26
e 21 28
e 21 35
e 21 47
e 21 48
e 21 51
e 21 56
e 21 63
e 21 80
e 21 83
e 21 86
e 21 88
e 21 91
e 21 94
e 21 99
e 21 103
e 21 110
e 21 115
e 21 118
e 21 122
e 21 124
e 21 132
e 21 136
e 21 147
e 21 157
e 21 159
e 21 168
e 21 171
e 21 178
e 21 179
e 21 186
e 21 189
e 21 196
e 21 197
e 22 31
e 22 36
e 22 41
e 22 51
e 22 54
e 22 55
e 22 56
e 22 59
e 22 64
e 22 68
e 22 80
e 22 82
e 22 84
e 22 89
e 22 95
e 22 112
e 22 113
e 22 127
e 22 128
e 22 131
e 22 143
e 22 144
e 22 147
e 22 148
e 22 154
e 22 156
e 22 158
e 22 161
e 22 165
e 22 169
e 22 170
e 22 175
e 22 177
e 22 181
e 22 189
e 22 190
e 22 193
e 22 198
e 22 200
e 23 29
e 23 34
e 23 46
e 23 47
e 23 49
e 23 55
e 23 71
e 23 77
e 23 78
e 23 80
e 23 81
e 23 83
e 23 92
e 23 98
e 23 105
e 23 107
e 23 120
e 23 123
e 23 130
e 23 137
e 23 138
e 23 146
e 23 162
e 23 164
e 23 174
e 23 187
e 23 190
e 23 192
e 23 197
e 23 198
e 23 199
e 24 25
e 24 26
e 24 32
e 24 34
e 24 35
e 24 41
e 24 43
e 24 49
e 24 52
e 24 54
e 24 63
e 24 68
e 24 70
e 24 74
e 24 75
e 24 79
e 24 83
e 24 87
e 24 91
e 24 92
e 24 93
e 24 99
e 24 104
e 24 107
e 24 131
e 24 138
e 24 146
e 24 150
e 24 161
e 24 165
e 24 166
e 24 175
e 24 177
e 24 178
e 24 185
e 24 193
e 25 26
e 25 33
e 25 35
e 25 37
e 25 48
e 25 50
e 25 55
e 25 58
e 25 61
e 25 64
e 25 65
e 25 67
e 25 81
e 25 89
e 25 93
e 25 97
e 25 109
e 25 111
e 25 116
e 25 120
e 25 127
e 25 131
e 25 134
e 25 135
e 25 137
e 25 139
e 25 141
e 25 142
e 25 156
e 25 179
e 25 181
e 25 183
e 25 186
e 25 197
e 26 32
e 26 33
e 26 37
e 26 41
e 26 44
e 26 53
e 26 56
e 26 61
e 26 62
e 26 63
e 26 67
e 26 78
e 26 79
e 26 82
e 26 85
e 26 86
e 26 91
e 26 99
e 26 105
e 26 106
e 26 111
e 26 115
e 26 118
e 26 122
e 26 126
e 26 134
e 26 152
e 26 159
e 26 166
e 26 187
e 26 194
e 26 196
e 26 197
e 26 199
e 27 28
e 27 33
e 27 38
e 27 47
e 27 55
e 27 57
e 27 60
e 27 64
e 27 68
e 27 80
e 27 81
e 27 91
e 27 93
e 27 97
e 27 98
e 27 103
e 27 106
e 27 114
e 27 121
e 27 127
e 27 132
e 27 134
e 27 137
e 27 138
e 27 140
e 27 143
e 27 147
e 27 149
e 27 150
e 27 151
e 27 164
e 27 165
e 27 168
e 27 171
e 27 172
e 27 173
e 27 174
e 27 175
e 27 178
e 27 186
e 27 188
e 27 191
e 27 192
e 27 193
e 27 196
e 27 198
e 28 30
e 28 32
e 28 36
e 28 41
e 28 43
e 28 50
e 28 54
e 28 58
e 28 59
e 28 60
e 28 62
e 28 64
e 28 76
e 28 77
e 28 86
e 28 95
e 28 100
e 28 101
e 28 103
e 28 112
e 28 115
e 28 127
e 28 129
e 28 130
e 28 138
e 28 175
e 28 177
e 28 178
e 28 186
e 28 187
e 28 190
e 28 192
e 29 32
e 29 33
e 29 37
e 29 39
e 29 41
e 29 43
e 29 46
e 29 54
e 29 72
e 29 75
e 29 87
e 29 90
e 29 93
e 29 94
e 29 98
e 29 112
e 29 116
e 29 120
e 29 122
e 29 132
e 29 135
e 29 142
e 29 146
e 29 147
e 29 150
e 29 154
e 29 172
e 29 179
e 29 181
e 29 186
e 29 192
e 30 37
e 30 41
e 30 45
e 30 47
e 30 62
e 30 64
e 30 67
e 30 70
e 30 71
e 30 72
e 30 73
e 30 74
e 30 80
e 30 82
e 30 91
e 30 108
e 30 112
e 30 120
e 30 121
e 30 122
e 30 127
e 30 133
e 30 134
e 30 135
e 30 142
e 30 143
e 30 171
e 30 183
e 30 185
e 30 190
e 30 200
e 31 34
e 31 37
e 31 40
e 31 63
e 31 64
e 31 65
e 31 73
e 31 78
e 31 82
e 31 88
e 31 89
e 31 91
e 31 94
e 31 101
e 31 114
e 31 124
e 31 134
e 31 140
e 31 142
e 31 150
e 31 158
e 31 172
e 31 173
e 31 175
e 31 179
e 31 182
e 31 186
e 31 192
e 32 37
e 32 43
e 32 47
e 32 51
e 32 56
e 32 63
e 32 80
e 32 86
e 32 87
e 32 93
e 32 101
e 32 104
e 32 107
e 32 111
e 32 119
e 32 123
e 32 124
e 32 125
e 32 133
e 32 135
e 32 140
e 32 145
e 32 149
e 32 150
e 32 156
e 32 162
e 32 171
e 32 173
e 32 178
e 32 181
e 32 188
e 33 36
e 33 40
e 33 43
e 33 47
e 33 49
e 33 53
e 33 55
e 33 62
e 33 63
e 33 65
e 33 74
e 33 96
e 33 104
e 33 109
e 33 115
e 33 117
e 33 120
e 33 135
e 33 136
e 33 140
e 33 142
e 33 154
e 33 155
e 33 183
e 33 186
e 33 195
e 33 198
e 33 200
e 34 38
e 34 39
e 34 42
e 34 49
e 34 55
e 34 56
e 34 59
e 34 64
e 34 68
e 34 77
e 34 99
e 34 112
e 34 129
e 34 138
e 34 148
e 34 155
e 34 162
e 34 164
e 34 172
e 34 188
e 34 192
e 34 195
e 34 197
e 35 36
e 35 37
e 35 47
e 35 55
e 35 59
e 35 67
e 35 68
e 35 72
e 35 73
e 35 78
e 35 83
e 35 92
e 35 108
e 35 111
e 35 118
e 35 123
e 35 134
e 35 137
e 35 138
e 35 140
e 35 146
e 35 147
e 35 149
e 35 153
e 35 156
e 35 163
e 35 164
e 35 170
e 35 174
e 35 179
e 35 182
e 35 191
e 35 194
e 36 47
e 36 55
e 36 57
e 36 58
e 36 61
e 36 64
e 36 67
e 36 70
e 36 89
e 36 98
e 36 99
e 36 104
e 36 107
e 36 111
e 36 112
e 36 117
e 36 119
e 36 121
e 36 146
e 36 151
e 36 160
e 36 161
e 36 166
e 36 169
e 36 170
e 36 173
e 36 174
e 36 183
e 36 192
e 36 199
e 37 38
e 37 51
e 37 63
e 37 67
e 37 71
e 37 76
e 37 81
e 37 84
e 37 85
e 37 95
e 37 108
e 37 132
e 37 140
e 37 141
e 37 144
e 37 145
e 37 149
e 37 168
e 37 169
e 37 171
e 37 182
e 37 183
e 37 185
e 37 191
e 37 197
e 37 198
e 38 39
e 38 41
e 38 46
e 38 49
e 38 56
e 38 75
e 38 78
e 38 82
e 38 99
e 38 100
e 38 107
e 38 109
e 38 114
e 38 117
e 38 121
e 38 129
e 38 130
e 38 134
e 38 137
e 38 142
e 38 150
e 38 151
e 38 152
e 38 156
e 38 159
e 38 170
e 38 180
e 38 191
e 38 193
e 38 197
e 39 48
e 39 51
e 39 55
e 39 56
e 39 57
e 39 59
e 39 63
e 39 72
e 39 77
e 39 79
e 39 91
e 39 93
e 39 95
e 39 96
e 39 97
e 39 105
e 39 107
e 39 111
e 39 112
e 39 116
e 39 118
e 39 129
e 39 131
e 39 133
e 39 135
e 39 136
e 39 146
e 39 150
e 39 160
e 39 161
e 39 163
e 39 165
e 39 168
e 39 171
e 39 172
e 39 194
e 40 45
e 40 52
e 40 55
e 40 56
e 40 57
e 40 60
e 40 70
e 40 71
e 40 77
e 40 79
e 40 83
e 40 87
e 40 95
e 40 98
e 40 103
e 40 111
e 40 114
e 40 133
e 40 134
e 40 140
e 40 144
e 40 152
e 40 153
e 40 165
e 40 166
e 40 168
e 40 186
e 40 187
e 40 188
e 40 189
e 40 191
e 40 197
e 41 42
e 41 72
e 41 77
e 41 82
e 41 86
e 41 90
e 41 93
e 41 101
e 41 118
e 41 122
e 41 139
e 41 143
e 41 161
e 41 172
e 41 174
e 41 177
e 41 178
e 41 183
e 41 184
e 41 185
e 41 193
e 41 196
e 41 199
e 42 54
e 42 64
e 42 72
e 42 75
e 42 81
e 42 86
e 42 92
e 42 95
e 42 103
e 42 106
e 42 113
e 42 126
e 42 131
e 42 144
e 42 145
e 42 148
e 42 150
e 42 155
e 42 159
e 42 161
e 42 168
e 42 169
e 42 170
e 42 184
e 42 187
e 42 190
e 42 194
e 43 44
e 43 54
e 43 55
e 43 56
e 43 57
e 43 60
e 43 68
e 43 72
e 43 73
e 43 77
e 43 81
e 43 87
e 43 90
e 43 96
e 43 99
e 43 107
e 43 108
e 43 109
e 43 110
e 43 111
e 43 125
e 43 126
e 43 127
e 43 135
e 43 140
e 43 141
e 43 148
e 43 152
e 43 157
e 43 162
e 43 166
e 43 178
e 43 180
e 43 183
e 43 185
e 43 186
e 44 48
e 44 57
e 44 60
e 44 62
e 44 63
e 44 66
e 44 71
e 44 83
e 44 90
e 44 94
e 44 98
e 44 100
e 44 106
e 44 110
e 44 117
e 44 137
e 44 142
e 44 145
e 44 148
e 44 149
e 44 159
e 44 161
e 44 162
e 44 176
e 44 184
e 44 191
e 44 197
e 45 52
e 45 55
e 45 56
e 45 60
e 45 68
e 45 70
e 45 74
e 45 75
e 45 76
e 45 82
e 45 83
e 45 92
e 45 95
e 45 98
e 45 105
e 45 108
e 45 114
e 45 117
e 45 118
e 45 121
e 45 127
e 45 131
e 45 138
e 45 142
e 45 146
e 45 149
e 45 150
e 45 152
e 45 154
e 45 160
e 45 161
e 45 170
e 45 171
e 45 174
e 45 175
e 45 176
e 45 180
e 45 181
e 45 190
e 45 192
e 45 194
e 45 200
e 46 48
e 46 53
e 46 64
e 46 65
e 46 72
e 46 76
e 46 81
e 46 85
e 46 89
e 46 99
e 46 101
e 46 104
e 46 110
e 46 123
e 46 124
e 46 127
e 46 128
e 46 139
e 46 140
e 46 148
e 46 152
e 46 174
e 46 175
e 46 185
e 46 194
e 46 196
e 46 199
e 47 57
e 47 63
e 47 75
e 47 81
e 47 86
e 47 87
e 47 90
e 47 99
e 47 109
e 47 110
e 47 118
e 47 122
e 47 136
e 47 140
e 47 143
e 47 148
e 47 150
e 47 154
e 47 158
e 47 161
e 47 170
e 47 176
e 47 178
e 47 182
e 47 187
e 47 197
e 48 59
e 48 60
e 48 62
e 48 63
e 48 74
e 48 75
e 48 77
e 48 78
e 48 82
e 48 85
e 48 86
e 48 91
e 48 92
e 48 96
e 48 97
e 48 100
e 48 105
e 48 107
e 48 111
e 48 116
e 48 117
e 48 122
e 48 130
e 48 134
e 48 141
e 48 149
e 48 169
e 48 172
e 48 174
e 48 177
e 48 178
e 48 181
e 48 190
e 48 191
e 48 195
e 48 197
e 48 199
e 48 200
e 49 50
e 49 54
e 49 56
e 49 59
e 49 61
e 49 62
e 49 67
e 49 70
e 49 72
e 49 73
e 49 83
e 49 90
e 49 91
e 49 98
e 49 100
e 49 101
e 49 102
e 49 104
e 49 105
e 49 108
e 49 114
e 49 117
e 49 119
e 49 120
e 49 121
e 49 123
e 49 127
e 49 132
e 49 142
e 49 150
e 49 151
e 49 154
e 49 164
e 49 170
e 49 181
e 49 183
e 49 185
e 49 187
e 49 189
e 49 190
e 49 194
e 49 198
e 50 54
e 50 59
e 50 64
e 50 71
e 50 75
e 50 80
e 50 96
e 50 102
e 50 104
e 50 111
e 50 116
e 50 120
e 50 124
e 50 127
e 50 136
e 50 141
e 50 158
e 50 159
e 50 160
e 50 162
e 50 166
e 50 170
e 50 171
e 50 179
e 50 181
e 50 196
e 50 198
e 50 199
e 51 54
e 51 61
e 51 67
e 51 71
e 51 72
e 51 75
e 51 77
e 51 80
e 51 85
e 51 89
e 51 92
e 51 95
e 51 96
e 51 98
e 51 102
e 51 125
e 51 133
e 51 148
e 51 151
e 51 162
e 51 164
e 51 165
e 51 168
e 51 169
e 51 170
e 51 172
e 51 180
e 51 188
e 51 193
e 51 196
e 51 198
e 52 55
e 52 62
e 52 63
e 52 67
e 52 71
e 52 75
e 52 77
e 52 87
e 52 91
e 52 96
e 52 97
e 52 106
e 52 108
e 52 109
e 52 113
e 52 116
e 52 121
e 52 126
e 52 140
e 52 142
e 52 148
e 52 157
e 52 159
e 52 160
e 52 166
e 52 170
e 52 173
e 52 175
e 52 179
e 52 180
e 52 181
e 52 183
e 52 185
e 52 188
e 52 189
e 52 192
e 52 199
e 53 55
e 53 57
e 53 58
e 53 63
e 53 64
e 53 66
e 53 70
e 53 71
e 53 74
e 53 80
e 53 101
e 53 103
e 53 111
e 53 113
e 53 115
e 53 118
e 53 120
e 53 124
e 53 127
e 53 132
e 53 133
e 53 135
e 53 136
e 53 138
e 53 147
e 53 150
e 53 152
e 53 165
e 53 170
e 53 179
e 53 181
e 53 190
e 53 194
e 53 198
e 53 199
e 54 64
e 54 65
e 54 68
e 54 83
e 54 86
e 54 87
e 54 93
e 54 96
e 54 97
e 54 99
e 54 100
e 54 101
e 54 106
e 54 109
e 54 112
e 54 117
e 54 120
e 54 137
e 54 149
e 54 152
e 54 153
e 54 155
e 54 165
e 54 178
e 54 182
e 54 183
e 54 186
e 54 188
e 54 189
e 54 191
e 54 194
e 54 196
e 54 200
e 55 61
e 55 62
e 55 64
e 55 70
e 55 79
e 55 82
e 55 85
e 55 88
e 55 90
e 55 93
e 55 94
e 55 96
e 55 97
e 55 106
e 55 110
e 55 117
e 55 127
e 55 129
e 55 131
e 55 132
e 55 133
e 55 141
e 55 143
e 55 148
e 55 152
e 55 153
e 55 171
e 55 174
e 55 185
e 55 187
e 56 61
e 56 67
e 56 70
e 56 74
e 56 79
e 56 80
e 56 85
e 56 86
e 56 89
e 56 90
e 56 97
e 56 104
e 56 107
e 56 111
e 56 112
e 56 116
e 56 120
e 56 127
e 56 130
e 56 131
e 56 142
e 56 146
e 56 149
e 56 150
e 56 153
e 56 154
e 56 161
e 56 168
e 56 172
e 56 175
e 56 181
e 56 192
e 56 194
e 56 196
e 56 197
e 57 64
e 57 68
e 57 74
e 57 77
e 57 79
e 57 82
e 57 89
e 57 93
e 57 100
e 57 103
e 57 107
e 57 120
e 57 125
e 57 126
e 57 128
e 57 140
e 57 146
e 57 153
e 57 155
e 57 156
e 57 159
e 57 160
e 57 162
e 57 165
e 57 175
e 57 176
e 57 185
e 57 193
e 57 197
e 57 200
e 58 65
e 58 78
e 58 84
e 58 87
e 58 91
e 58 95
e 58 96
e 58 101
e 58 102
e 58 106
e 58 110
e 58 115
e 58 127
e 58 128
e 58 130
e 58 135
e 58 136
e 58 158
e 58 165
e 58 166
e 58 176
e 58 181
e 58 183
e 58 184
e 58 186
e 58 187
e 58 196
e 58 198
e 59 62
e 59 64
e 59 66
e 59 69
e 59 72
e 59 73
e 59 77
e 59 82
e 59 90
e 59 92
e 59 99
e 59 104
e 59 105
e 59 106
e 59 114
e 59 115
e 59 117
e 59 123
e 59 124
e 59 139
e 59 141
e 59 144
e 59 148
e 59 159
e 59 169
e 59 179
e 59 186
e 59 192
e 60 62
e 60 65
e 60 69
e 60 70
e 60 88
e 60 93
e 60 108
e 60 121
e 60 126
e 60 127
e 60 128
e 60 130
e 60 132
e 60 140
e 60 149
e 60 153
e 60 159
e 60 171
e 60 173
e 60 183
e 60 186
e 60 190
e 60 197
e 60 200
e 61 62
e 61 68
e 61 70
e 61 72
e 61 73
e 61 74
e 61 78
e 61 80
e 61 89
e 61 94
e 61 97
e 61 98
e 61 100
e 61 105
e 61 109
e 61 111
e 61 112
e 61 113
e 61 115
e 61 119
e 61 127
e 61 129
e 61 132
e 61 137
e 61 142
e 61 152
e 61 163
e 61 181
e 61 182
e 61 183
e 61 184
e 61 186
e 61 195
e 61 197
e 61 200
e 62 66
e 62 75
e 62 80
e 62 91
e 62 97
e 62 98
e 62 104
e 62 108
e 62 113
e 62 117
e 62 125
e 62 126
e 62 140
e 62 142
e 62 143
e 62 146
e 62 159
e 62 168
e 62 169
e 62 171
e 62 177
e 62 186
e 62 189
e 62 199
e 63 64
e 63 70
e 63 71
e 63 75
e 63 79
e 63 83
e 63 86
e 63 89
e 63 93
e 63 97
e 63 101
e 63 109
e 63 116
e 63 117
e 63 123
e 63 124
e 63 135
e 63 136
e 63 137
e 63 142
e 63 152
e 63 169
e 63 173
e 63 175
e 63 182
e 63 183
e 63 188
e 63 189
e 63 191
e 63 196
e 63 197
e 64 67
e 64 70
e 64 84
e 64 86
e 64 88
e 64 89
e 64 95
e 64 104
e 64 107
e 64 108
e 64 111
e 64 112
e 64 114
e 64 115
e 64 116
e 64 125
e 64 126
e 64 131
e 64 136
e 64 138
e 64 142
e 64 145
e 64 146
e 64 147
e 64 150
e 64 151
e 64 152
e 64 155
e 64 157
e 64 173
e 64 177
e 64 188
e 65 82
e 65 84
e 65 86
e 65 89
e 65 93
e 65 94
e 65 96
e 65 98
e 65 99
e 65 107
e 65 112
e 65 129
e 65 137
e 65 141
e 65 147
e 65 148
e 65 162
e 65 166
e 65 169
e 65 171
e 65 180
e 65 182
e 65 183
e 65 186
e 65 188
e 65 192
e 65 193
e 65 194
e 65 198
e 66 69
e 66 70
e 66 73
e 66 74
e 66 78
e 66 81
e 66 83
e 66 97
e 66 102
e 66 104
e 66 105
e 66 111
e 66 113
e 66 115
e 66 118
e 66 123
e 66 128
e 66 129
e 66 132
e 66 135
e 66 147
e 66 157
e 66 159
e 66 166
e 66 167
e 66 175
e 66 180
e 66 189
e 66 200
e 67 68
e 67 74
e 67 80
e 67 83
e 67 89
e 67 98
e 67 120
e 67 125
e 67 129
e 67 140
e 67 141
e 67 145
e 67 146
e 67 149
e 67 151
e 67 155
e 67 158
e 67 163
e 67 164
e 67 170
e 67 171
e 67 173
e 67 180
e 67 183
e 67 191
e 67 199
e 68 71
e 68 74
e 68 91
e 68 96
e 68 100
e 68 101
e 68 114
e 68 119
e 68 121
e 68 122
e 68 128
e 68 137
e 68 150
e 68 151
e 68 153
e 68 154
e 68 158
e 68 165
e 68 169
e 68 179
e 68 183
e 68 184
e 68 188
e 68 190
e 69 70
e 69 76
e 69 89
e 69 90
e 69 97
e 69 98
e 69 101
e 69 102
e 69 110
e 69 113
e 69 114
e 69 124
e 69 133
e 69 152
e 69 164
e 69 169
e 69 175
e 69 188
e 69 194
e 70 77
e 70 79
e 70 80
e 70 86
e 70 87
e 70 91
e 70 102
e 70 106
e 70 109
e 70 112
e 70 114
e 70 116
e 70 121
e 70 123
e 70 129
e 70 139
e 70 146
e 70 157
e 70 159
e 70 161
e 70 166
e 70 169
e 70 171
e 70 173
e 70 185
e 70 188
e 70 197
e 70 198
e 71 72
e 71 75
e 71 77
e 71 78
e 71 86
e 71 89
e 71 106
e 71 109
e 71 110
e 71 123
e 71 126
e 71 127
e 71 132
e 71 133
e 71 137
e 71 138
e 71 141
e 71 142
e 71 145
e 71 146
e 71 149
e 71 152
e 71 157
e 71 170
e 71 171
e 71 174
e 71 178
e 71 180
e 71 181
e 71 183
e 71 189
e 71 194
e 72 80
e 72 86
e 72 100
e 72 102
e 72 109
e 72 116
e 72 121
e 72 123
e 72 124
e 72 125
e 72 132
e 72 133
e 72 134
e 72 141
e 72 147
e 72 148
e 72 150
e 72 160
e 72 162
e 72 165
e 72 174
e 72 175
e 72 178
e 72 183
e 72 186
e 72 188
e 72 190
e 72 191
e 72 193
e 72 197
e 73 82
e 73 83
e 73 84
e 73 87
e 73 89
e 73 91
e 73 97
e 73 107
e 73 112
e 73 118
e 73 125
e 73 129
e 73 130
e 73 140
e 73 145
e 73 149
e 73 151
e 73 156
e 73 157
e 73 159
e 73 160
e 73 164
e 73 168
e 73 169
e 73 173
e 73 177
e 73 187
e 73 189
e 73 195
e 73 196
e 73 197
e 73 200
e 74 77
e 74 78
e 74 79
e 74 80
e 74 84
e 74 92
e 74 102
e 74 105
e 74 109
e 74 135
e 74 142
e 74 146
e 74 148
e 74 149
e 74 150
e 74 156
e 74 160
e 74 163
e 74 165
e 74 167
e 74 169
e 74 179
e 74 180
e 74 186
e 74 187
e 74 188
e 74 189
e 74 190
e 74 193
e 75 78
e 75 88
e 75 90
e 75 93
e 75 94
e 75 111
e 75 113
e 75 115
e 75 120
e 75 121
e 75 122
e 75 126
e 75 132
e 75 139
e 75 144
e 75 148
e 75 149
e 75 150
e 75 153
e 75 160
e 75 161
e 75 162
e 75 166
e 75 173
e 75 175
e 75 182
e 75 183
e 75 190
e 75 193
e 75 194
e 76 79
e 76 84
e 76 85
e 76 95
e 76 97
e 76 100
e 76 105
e 76 108
e 76 114
e 76 116
e 76 123
e 76 136
e 76 143
e 76 145
e 76 148
e 76 150
e 76 152
e 76 155
e 76 157
e 76 158
e 76 164
e 76 167
e 76 172
e 76 178
e 76 182
e 76 188
e 76 193
e 76 196
e 76 197
e 76 198
e 77 82
e 77 83
e 77 89
e 77 95
e 77 106
e 77 109
e 77 110
e 77 111
e 77 114
e 77 115
e 77 119
e 77 130
e 77 131
e 77 133
e 77 140
e 77 143
e 77 148
e 77 149
e 77 154
e 77 165
e 77 173
e 77 175
e 77 179
e 77 186
e 77 189
e 77 196
e 78 80
e 78 89
e 78 94
e 78 110
e 78 112
e 78 116
e 78 124
e 78 126
e 78 141
e 78 151
e 78 152
e 78 158
e 78 164
e 78 167
e 78 171
e 78 175
e 78 183
e 78 185
e 78 192
e 79 81
e 79 82
e 79 98
e 79 101
e 79 108
e 79 109
e 79 110
e 79 113
e 79 115
e 79 116
e 79 123
e 79 124
e 79 131
e 79 136
e 79 141
e 79 146
e 79 159
e 79 162
e 79 165
e 79 166
e 79 174
e 79 194
e 79 197
e 79 200
e 80 86
e 80 90
e 80 91
e 80 100
e 80 105
e 80 118
e 80 119
e 80 125
e 80 128
e 80 130
e 80 131
e 80 132
e 80 137
e 80 138
e 80 146
e 80 154
e 80 156
e 80 161
e 80 163
e 80 165
e 80 166
e 80 171
e 80 176
e 80 182
e 80 184
e 80 189
e 80 196
e 80 197
e 80 198
e 81 83
e 81 85
e 81 86
e 81 91
e 81 95
e 81 97
e 81 101
e 81 105
e 81 114
e 81 116
e 81 121
e 81 122
e 81 127
e 81 133
e 81 140
e 81 144
e 81 146
e 81 150
e 81 152
e 81 154
e 81 156
e 81 161
e 81 166
e 81 169
e 81 172
e 81 180
e 81 183
e 81 192
e 81 196
e 82 84
e 82 87
e 82 88
e 82 90
e 82 95
e 82 97
e 82 100
e 82 103
e 82 106
e 82 107
e 82 108
e 82 110
e 82 114
e 82 115
e 82 121
e 82 135
e 82 136
e 82 143
e 82 147
e 82 149
e 82 150
e 82 161
e 82 173
e 82 177
e 82 180
e 82 192
e 82 194
e 83 95
e 83 96
e 83 97
e 83 105
e 83 106
e 83 113
e 83 115
e 83 116
e 83 117
e 83 118
e 83 121
e 83 127
e 83 130
e 83 135
e 83 147
e 83 149
e 83 154
e 83 163
e 83 168
e 83 179
e 83 180
e 83 186
e 83 193
e 83 198
e 83 200
e 84 85
e 84 89
e 84 99
e 84 104
e 84 108
e 84 121
e 84 123
e 84 125
e 84 127
e 84 135
e 84 137
e 84 140
e 84 141
e 84 143
e 84 147
e 84 149
e 84 153
e 84 156
e 84 163
e 84 165
e 84 169
e 84 170
e 84 174
e 84 186
e 84 189
e 84 193
e 84 199
e 85 87
e 85 91
e 85 94
e 85 97
e 85 99
e 85 102
e 85 103
e 85 107
e 85 110
e 85 111
e 85 115
e 85 121
e 85 132
e 85 134
e 85 138
e 85 139
e 85 143
e 85 148
e 85 149
e 85 164
e 85 168
e 85 172
e 85 187
e 85 190
e 85 191
e 85 194
e 85 199
e 86 87
e 86 95
e 86 96
e 86 99
e 86 102
e 86 113
e 86 114
e 86 118
e 86 121
e 86 122
e 86 142
e 86 145
e 86 153
e 86 157
e 86 159
e 86 160
e 86 166
e 86 169
e 86 176
e 86 177
e 86 185
e 87 90
e 87 94
e 87 98
e 87 99
e 87 110
e 87 114
e 87 115
e 87 118
e 87 119
e 87 121
e 87 124
e 87 131
e 87 133
e 87 140
e 87 154
e 87 158
e 87 159
e 87 160
e 87 167
e 87 170
e 87 181
e 87 188
e 88 89
e 88 102
e 88 106
e 88 107
e 88 108
e 88 112
e 88 114
e 88 122
e 88 133
e 88 135
e 88 140
e 88 143
e 88 144
e 88 150
e 88 157
e 88 165
e 88 169
e 88 180
e 88 181
e 89 91
e 89 93
e 89 100
e 89 101
e 89 102
e 89 106
e 89 109
e 89 116
e 89 118
e 89 126
e 89 127
e 89 133
e 89 139
e 89 148
e 89 151
e 89 154
e 89 162
e 89 164
e 89 165
e 89 167
e 89 168
e 89 171
e 89 178
e 89 179
e 89 180
e 89 181
e 89 187
e 89 188
e 89 192
e 89 194
e 89 195
e 89 196
e 89 197
e 89 198
e 90 93
e 90 101
e 90 106
e 90 108
e 90 117
e 90 120
e 90 122
e 90 124
e 90 133
e 90 138
e 90 139
e 90 147
e 90 157
e 90 161
e 90 177
e 90 184
e 90 192
e 90 193
e 90 195
e 90 197
e 90 200
e 91 92
e 91 96
e 91 99
e 91 100
e 91 107
e 91 118
e 91 121
e 91 124
e 91 125
e 91 130
e 91 137
e 91 138
e 91 146
e 91 148
e 91 160
e 91 161
e 91 166
e 91 167
e 91 168
e 91 172
e 91 173
e 91 183
e 91 184
e 91 187
e 92 93
e 92 101
e 92 109
e 92 110
e 92 119
e 92 131
e 92 141
e 92 143
e 92 145
e 92 150
e 92 152
e 92 155
e 92 156
e 92 164
e 92 166
e 92 169
e 92 175
e 92 178
e 92 194
e 92 197
e 92 199
e 93 96
e 93 124
e 93 132
e 93 137
e 93 138
e 93 144
e 93 146
e 93 153
e 93 154
e 93 165
e 93 167
e 93 171
e 93 176
e 93 178
e 93 184
e 93 198
e 93 200
e 94 96
e 94 98
e 94 105
e 94 107
e 94 121
e 94 137
e 94 142
e 94 143
e 94 146
e 94 152
e 94 158
e 94 161
e 94 164
e 94 167
e 94 172
e 94 175
e 94 177
e 94 180
e 94 184
e 94 191
e 94 195
e 95 96
e 95 97
e 95 100
e 95 104
e 95 105
e 95 114
e 95 118
e 95 148
e 95 154
e 95 156
e 95 179
e 95 184
e 95 186
e 95 188
e 95 189
e 95 193
e 95 195
e 95 197
e 96 98
e 96 109
e 96 112
e 96 116
e 96 124
e 96 134
e 96 138
e 96 144
e 96 157
e 96 160
e 96 165
e 96 173
e 96 175
e 96 187
e 96 193
e 96 196
e 96 199
e 97 99
e 97 100
e 97 101
e 97 105
e 97 107
e 97 110
e 97 112
e 97 116
e 97 123
e 97 129
e 97 135
e 97 137
e 97 138
e 97 139
e 97 145
e 97 152
e 97 154
e 97 160
e 97 164
e 97 165
e 97 173
e 97 175
e 97 185
e 97 186
e 97 198
e 98 102
e 98 111
e 98 122
e 98 133
e 98 139
e 98 149
e 98 160
e 98 161
e 98 165
e 98 167
e 98 171
e 98 175
e 98 180
e 98 187
e 98 188
e 98 194
e 98 197
e 98 198
e 99 106
e 99 111
e 99 121
e 99 123
e 99 129
e 99 137
e 99 140
e 99 152
e 99 162
e 99 165
e 99 166
e 99 174
e 99 195
e 99 196
e 99 199
e 100 105
e 100 111
e 100 119
e 100 124
e 100 131
e 100 136
e 100 141
e 100 146
e 100 167
e 100 171
e 100 172
e 100 177
e 100 182
e 100 183
e 100 188
e 100 190
e 100 191
e 100 192
e 101 103
e 101 113
e 101 123
e 101 128
e 101 136
e 101 137
e 101 139
e 101 141
e 101 143
e 101 149
e 101 152
e 101 157
e 101 159
e 101 161
e 101 168
e 101 169
e 101 171
e 101 183
e 101 190
e 101 191
e 101 197
e 102 108
e 102 113
e 102 119
e 102 122
e 102 125
e 102 128
e 102 134
e 102 139
e 102 147
e 102 159
e 102 160
e 102 162
e 102 163
e 102 170
e 102 171
e 102 173
e 102 176
e 102 181
e 102 186
e 102 187
e 102 192
e 102 193
e 102 197
e 103 105
e 103 116
e 103 120
e 103 128
e 103 133
e 103 136
e 103 138
e 103 142
e 103 149
e 103 151
e 103 156
e 103 159
e 103 169
e 103 178
e 103 190
e 103 194
e 103 195
e 103 198
e 103 199
e 104 118
e 104 119
e 104 125
e 104 129
e 104 135
e 104 144
e 104 148
e 104 156
e 104 157
e 104 171
e 104 183
e 104 189
e 104 190
e 104 200
e 105 112
e 105 120
e 105 122
e 105 128
e 105 131
e 105 133
e 105 137
e 105 156
e 105 159
e 105 167
e 105 168
e 105 174
e 105 186
e 105 191
e 105 194
e 105 195
e 105 197
e 106 112
e 106 114
e 106 115
e 106 118
e 106 123
e 106 125
e 106 126
e 106 128
e 106 140
e 106 142
e 106 148
e 106 150
e 106 152
e 106 155
e 106 157
e 106 161
e 106 173
e 106 176
e 106 179
e 106 180
e 106 185
e 106 186
e 106 188
e 106 190
e 106 200
e 107 119
e 107 120
e 107 123
e 107 124
e 107 132
e 107 161
e 107 162
e 107 166
e 107 168
e 107 179
e 107 181
e 107 186
e 107 187
e 107 193
e 107 198
e 107 200
e 108 111
e 108 120
e 108 123
e 108 129
e 108 143
e 108 148
e 108 160
e 108 161
e 108 166
e 108 167
e 108 169
e 108 175
e 108 178
e 108 191
e 108 193
e 108 197
e 109 112
e 109 124
e 109 125
e 109 129
e 109 140
e 109 142
e 109 145
e 109 148
e 109 149
e 109 152
e 109 163
e 109 165
e 109 166
e 109 170
e 109 177
e 109 183
e 109 191
e 109 195
e 109 199
e 110 120
e 110 125
e 110 126
e 110 127
e 110 129
e 110 130
e 110 137
e 110 141
e 110 142
e 110 143
e 110 146
e 110 147
e 110 150
e 110 151
e 110 155
e 110 157
e 110 165
e 110 178
e 110 180
e 110 182
e 110 187
e 111 117
e 111 118
e 111 136
e 111 138
e 111 142
e 111 148
e 111 151
e 111 153
e 111 164
e 111 169
e 111 174
e 111 177
e 111 181
e 111 183
e 111 185
e 111 190
e 112 114
e 112 118
e 112 128
e 112 131
e 112 133
e 112 139
e 112 143
e 112 145
e 112 163
e 112 173
e 112 179
e 112 181
e 112 186
e 112 193
e 112 194
e 112 197
e 112 198
e 112 200
e 113 114
e 113 115
e 113 119
e 113 125
e 113 136
e 113 139
e 113 140
e 113 141
e 113 160
e 113 161
e 113 163
e 113 168
e 113 175
e 113 179
e 113 180
e 114 122
e 114 124
e 114 143
e 114 145
e 114 147
e 114 149
e 114 152
e 114 164
e 114 167
e 114 168
e 114 170
e 114 171
e 114 172
e 114 175
e 114 179
e 114 180
e 114 184
e 114 190
e 114 191
e 114 197
e 115 121
e 115 123
e 115 124
e 115 129
e 115 131
e 115 132
e 115 137
e 115 139
e 115 142
e 115 143
e 115 146
e 115 147
e 115 162
e 115 165
e 115 175
e 115 177
e 115 180
e 115 181
e 115 198
e 116 119
e 116 128
e 116 138
e 116 147
e 116 149
e 116 151
e 116 153
e 116 154
e 116 164
e 116 176
e 116 179
e 117 119
e 117 135
e 117 138
e 117 156
e 117 179
e 117 180
e 117 183
e 117 185
e 117 190
e 117 192
e 117 195
e 117 197
e 117 198
e 118 120
e 118 123
e 118 126
e 118 136
e 118 149
e 118 157
e 118 165
e 118 168
e 118 170
e 118 178
e 118 179
e 118 189
e 118 192
e 118 195
e 118 196
e 118 200
e 119 122
e 119 125
e 119 131
e 119 136
e 119 143
e 119 145
e 119 146
e 119 158
e 119 162
e 119 163
e 119 184
e 119 186
e 119 188
e 119 191
e 119 198
e 120 122
e 120 134
e 120 143
e 120 146
e 120 153
e 120 155
e 120 164
e 120 168
e 120 170
e 120 171
e 120 175
e 120 177
e 120 179
e 120 184
e 120 189
e 120 196
e 120 198
e 121 125
e 121 128
e 121 129
e 121 138
e 121 141
e 121 146
e 121 152
e 121 153
e 121 158
e 121 162
e 121 174
e 121 176
e 121 178
e 121 191
e 121 192
e 121 196
e 121 197
e 121 199
e 122 125
e 122 127
e 122 130
e 122 131
e 122 135
e 122 137
e 122 138
e 122 141
e 122 150
e 122 161
e 122 164
e 122 165
e 122 171
e 122 173
e 122 175
e 122 179
e 122 191
e 123 128
e 123 130
e 123 131
e 123 132
e 123 134
e 123 135
e 123 141
e 123 145
e 123 148
e 123 153
e 123 156
e 123 167
e 123 173
e 123 183
e 123 196
e 123 200
e 124 125
e 124 143
e 124 146
e 124 154
e 124 158
e 124 170
e 124 172
e 124 176
e 124 179
e 124 181
e 124 192
e 124 197
e 124 200
e 125 129
e 125 130
e 125 131
e 125 133
e 125 137
e 125 142
e 125 146
e 125 150
e 125 151
e 125 152
e 125 153
e 125 154
e 125 168
e 125 171
e 125 180
e 125 187
e 125 189
e 125 192
e 125 196
e 125 197
e 125 199
e 126 130
e 126 133
e 126 134
e 126 135
e 126 145
e 126 147
e 126 155
e 126 158
e 126 161
e 126 163
e 126 165
e 126 167
e 126 168
e 126 178
e 126 181
e 126 183
e 127 130
e 127 131
e 127 142
e 127 148
e 127 149
e 127 150
e 127 157
e 127 169
e 127 173
e 127 174
e 127 180
e 127 186
e 127 188
e 127 190
e 127 192
e 127 195
e 127 198
e 128 135
e 128 138
e 128 142
e 128 144
e 128 157
e 128 159
e 128 166
e 128 181
e 128 183
e 128 189
e 128 193
e 128 197
e 129 130
e 129 135
e 129 139
e 129 142
e 129 143
e 129 146
e 129 153
e 129 158
e 129 164
e 129 167
e 129 172
e 129 173
e 129 175
e 129 182
e 129 191
e 129 193
e 129 196
e 129 197
e 130 141
e 130 149
e 130 154
e 130 160
e 130 163
e 130 166
e 130 175
e 130 179
e 130 180
e 130 183
e 130 190
e 130 194
e 131 133
e 131 134
e 131 150
e 131 152
e 131 165
e 131 166
e 131 174
e 131 189
e 131 193
e 131 198
e 132 134
e 132 135
e 132 136
e 132 145
e 132 146
e 132 166
e 132 180
e 132 186
e 132 197
e 132 199
e 133 134
e 133 138
e 133 141
e 133 151
e 133 160
e 133 166
e 133 167
e 133 187
e 133 190
e 133 199
e 134 147
e 134 153
e 134 156
e 134 173
e 134 174
e 134 178
e 134 180
e 134 181
e 134 183
e 134 187
e 134 189
e 135 141
e 135 148
e 135 149
e 135 151
e 135 156
e 135 159
e 135 160
e 135 172
e 135 176
e 135 181
e 135 189
e 135 194
e 135 195
e 136 145
e 136 150
e 136 158
e 136 159
e 136 166
e 136 171
e 136 176
e 136 182
e 136 184
e 136 185
e 136 188
e 136 192
e 137 160
e 137 167
e 137 182
e 137 184
e 137 185
e 137 188
e 137 189
e 137 200
e 138 139
e 138 142
e 138 148
e 138 151
e 138 163
e 138 164
e 138 165
e 138 166
e 138 169
e 138 176
e 138 183
e 138 185
e 138 188
e 138 194
e 139 142
e 139 145
e 139 153
e 139 157
e 139 159
e 139 166
e 139 170
e 139 172
e 139 177
e 139 185
e 139 187
e 139 194
e 139 198
e 140 144
e 140 146
e 140 157
e 140 160
e 140 165
e 140 172
e 140 177
e 140 178
e 140 179
e 140 185
e 140 188
e 140 189
e 140 196
e 141 142
e 141 143
e 141 145
e 141 150
e 141 153
e 141 159
e 141 161
e 141 165
e 141 169
e 141 173
e 141 174
e 141 181
e 141 184
e 141 190
e 141 191
e 141 197
e 142 145
e 142 177
e 142 181
e 142 182
e 142 190
e 142 200
e 143 149
e 143 152
e 143 157
e 143 169
e 143 174
e 143 177
e 143 185
e 143 188
e 143 189
e 143 197
e 143 198
e 144 146
e 144 147
e 144 151
e 144 159
e 144 162
e 144 173
e 144 174
e 144 177
e 144 178
e 144 182
e 144 184
e 144 193
e 144 199
e 145 172
e 145 174
e 145 175
e 145 176
e 145 183
e 145 184
e 145 187
e 145 192
e 145 195
e 145 199
e 146 149
e 146 151
e 146 153
e 146 154
e 146 158
e 146 159
e 146 174
e 146 191
e 146 198
e 147 155
e 147 161
e 147 168
e 147 171
e 147 178
e 147 180
e 147 182
e 147 184
e 147 188
e 147 190
e 147 194
e 147 195
e 148 158
e 148 162
e 148 163
e 148 165
e 148 170
e 148 172
e 148 174
e 148 175
e 148 180
e 148 182
e 148 185
e 148 186
e 148 188
e 148 192
e 149 150
e 149 162
e 149 168
e 149 169
e 149 177
e 149 180
e 149 199
e 150 160
e 150 164
e 150 170
e 150 172
e 150 191
e 151 152
e 151 160
e 151 161
e 151 164
e 151 175
e 151 193
e 151 199
e 152 153
e 152 174
e 152 176
e 152 177
e 152 179
e 152 182
e 152 188
e 152 191
e 153 165
e 153 166
e 153 167
e 153 169
e 153 178
e 153 180
e 153 188
e 153 194
e 154 161
e 154 171
e 154 174
e 154 179
e 154 180
e 154 184
e 155 159
e 155 161
e 155 167
e 155 168
e 155 177
e 155 179
e 155 186
e 155 191
e 155 195
e 156 165
e 156 169
e 156 173
e 156 175
e 156 181
e 156 191
e 156 195
e 156 198
e 157 159
e 157 165
e 157 169
e 157 170
e 157 175
e 157 178
e 157 186
e 157 188
e 157 189
e 157 194
e 157 196
e 157 199
e 158 161
e 158 164
e 158 165
e 158 167
e 158 169
e 158 173
e 158 182
e 158 185
e 158 189
e 158 191
e 158 198
e 159 163
e 159 167
e 159 169
e 159 172
e 159 176
e 159 178
e 159 180
e 159 187
e 159 189
e 159 195
e 159 199
e 160 161
e 160 164
e 160 166
e 160 170
e 160 173
e 160 179
e 160 180
e 160 188
e 160 193
e 160 195
e 161 162
e 161 169
e 161 173
e 161 189
e 161 195
e 161 199
e 162 166
e 162 175
e 162 177
e 162 181
e 162 189
e 163 164
e 163 173
e 163 177
e 163 180
e 163 181
e 163 184
e 163 197
e 164 166
e 164 176
e 165 172
e 165 173
e 165 175
e 165 183
e 165 186
e 165 190
e 166 170
e 166 172
e 166 173
e 166 174
e 166 181
e 166 197
e 167 168
e 167 172
e 167 174
e 167 176
e 167 179
e 167 181
e 167 184
e 167 186
e 167 187
e 167 194
e 167 196
e 167 197
e 167 198
e 168 170
e 168 173
e 168 174
e 168 184
e 168 186
e 168 187
e 168 190
e 168 197
e 168 199
e 169 170
e 169 173
e 169 193
e 169 197
e 170 179
e 170 184
e 170 193
e 170 197
e 170 199
e 171 179
e 171 182
e 171 183
e 171 184
e 171 189
e 171 196
e 171 199
e 172 175
e 172 182
e 172 185
e 172 189
e 172 192
e 172 197
e 173 174
e 173 178
e 173 185
e 173 194
e 173 196
e 173 200
e 174 182
e 174 186
e 174 189
e 174 194
e 174 196
e 174 198
e 174 199
e 175 177
e 175 178
e 175 180
e 175 188
e 175 190
e 175 193
e 175 200
e 176 178
e 176 179
e 176 183
e 176 189
e 176 194
e 176 195
e 177 194
e 177 199
e 178 185
e 178 186
e 178 190
e 178 198
e 179 182
e 179 189
e 180 183
e 180 188
e 181 190
e 181 192
e 182 194
e 183 185
e 183 189
e 183 194
e 183 196
e 183 200
e 184 187
e 184 195
e 184 197
e 185 190
e 185 191
e 185 193
e 185 197
e 187 197
e 187 200
e 188 190
e 188 192
e 188 198
e 189 191
e 189 193
e 189 197
e 189 198
e 189 200
e 190 191
e 190 195
e 191 192
e 194 196
e 194 198
e 194 199
e 195 196
e 195 199
e 196 197
e 197 200